c A SAT instance generated from a 3-CNF formula that had 14 clauses and 7 variables
p cnf 7 14
3 7 5 0
-2 -7 -6 0
-6 -3 -2 0
-7 -1 -5 0
-5 3 -6 0
-7 3 -5 0
4 3 -2 0
-2 1 7 0
-6 1 3 0
7 6 2 0
6 7 -3 0
-7 4 6 0
4 6 3 0
-2 1 3 0
